NAME : amz2531.122688_122688.tour
COMMENT : Cost = 122688_122688
COMMENT : Found by LKH-AMZ [Keld Helsgaun] Sun May 11 14:00:24 2025
COMMENT : TW viol.: 0 #: 0
TYPE : TOUR
DIMENSION : 140
TOUR_SECTION
6
92
106
52
114
20
116
85
77
110
17
94
39
34
118
133
89
71
140
72
58
139
87
75
105
38
125
32
7
135
117
1
31
30
96
29
8
73
98
57
113
60
136
130
123
26
127
101
45
5
24
108
115
124
120
80
61
100
126
9
88
63
59
28
74
70
15
86
14
54
121
48
104
46
79
53
21
40
62
102
131
3
55
103
134
10
78
95
97
47
25
83
93
56
68
132
44
42
84
69
37
23
51
64
129
112
65
67
43
138
35
91
107
18
90
82
22
66
11
122
81
111
27
2
36
109
19
128
4
99
33
49
137
16
12
41
76
50
13
119
-1
EOF
